;; produced by colibri_gnatprove.drv ;;
(set-info :smt-lib-version 2.6)
(set-logic QF_AUFFPBVNIRA)
(set-info :source |Quantifier-free VCs generated by SPARK 2014|)
(set-info :category industrial)
(set-info :status unknown)
;;; generated by SMT-LIB2 driver
;;; SMT-LIB2 driver: bit-vectors, common part
;;; SMT-LIB2: integer arithmetic
;;; SMT-LIB2: real arithmetic
(define-fun fp.isFinite32 ((x Float32)) Bool (or (fp.isZero x) (fp.isSubnormal x) (fp.isNormal x)))
(define-fun is_plus_infinity ((x Float32)) Bool (and (fp.isInfinite  x)
                                                (fp.isPositive  x)))

(define-fun is_minus_infinity ((x Float32)) Bool (and (fp.isInfinite  x)
                                                 (fp.isNegative  x)))

(define-fun is_plus_zero ((x Float32)) Bool (and (fp.isZero      x)
                                            (fp.isPositive  x)))

(define-fun is_minus_zero ((x Float32)) Bool (and (fp.isZero      x)
                                             (fp.isNegative  x)))

(declare-const max_int Int)

(define-fun in_range ((x Real)) Bool (and
                                     (<= (- (* 33554430.0 10141204801825835211973625643008.0)) x)
                                     (<= x (* 33554430.0 10141204801825835211973625643008.0))))

(define-fun in_int_range ((i Int)) Bool (and (<= (- max_int) i)
                                        (<= i max_int)))

(declare-const abstr Real)

(define-fun no_overflow ((m RoundingMode) (x Real)) Bool (in_range abstr))

(define-fun in_safe_int_range ((i Int)) Bool (and (<= (- 16777216) i)
                                             (<= i 16777216)))

(define-fun same_sign ((x Float32)
  (y Float32)) Bool (or (and (fp.isPositive  x) (fp.isPositive  y))
                    (and (fp.isNegative  x) (fp.isNegative  y))))

(define-fun diff_sign ((x Float32)
  (y Float32)) Bool (or (and (fp.isPositive  x) (fp.isNegative  y))
                    (and (fp.isNegative  x) (fp.isPositive  y))))

(define-fun product_sign ((z Float32) (x Float32)
  (y Float32)) Bool (and (=> (same_sign x y) (fp.isPositive  z))
                    (=> (diff_sign x y) (fp.isNegative  z))))

(define-fun sqr ((x Real)) Real (* x x))

(define-fun same_sign_real ((x Float32)
  (r Real)) Bool (or (and (fp.isPositive  x) (< 0.0 r))
                 (and (fp.isNegative  x) (< r 0.0))))

(define-fun to_int1 ((b Bool)) Int (ite (= b true) 1 0))

(define-fun of_int ((i Int)) Bool (ite (= i 0) false true))

(define-fun in_range1 ((x Int)) Bool (or (= x 0) (= x 1)))

(define-fun in_range2 ((x Int)) Bool (and (<= 0 x) (<= x 2147483647)))

(declare-const value__size Int)

(declare-const value__alignment Int)

;; value__size_axiom
  (assert (<= 0 value__size))

;; value__alignment_axiom
  (assert (<= 0 value__alignment))

(declare-const deceleration_curve__braking_curve_entry__location__first__bit Int)

(declare-const deceleration_curve__braking_curve_entry__location__last__bit Int)

(declare-const deceleration_curve__braking_curve_entry__location__position Int)

;; deceleration_curve__braking_curve_entry__location__first__bit_axiom
  (assert
  (<= 0 deceleration_curve__braking_curve_entry__location__first__bit))

;; deceleration_curve__braking_curve_entry__location__last__bit_axiom
  (assert
  (< deceleration_curve__braking_curve_entry__location__first__bit deceleration_curve__braking_curve_entry__location__last__bit))

;; deceleration_curve__braking_curve_entry__location__position_axiom
  (assert (<= 0 deceleration_curve__braking_curve_entry__location__position))

(declare-const deceleration_curve__braking_curve_entry__speed__first__bit Int)

(declare-const deceleration_curve__braking_curve_entry__speed__last__bit Int)

(declare-const deceleration_curve__braking_curve_entry__speed__position Int)

;; deceleration_curve__braking_curve_entry__speed__first__bit_axiom
  (assert (<= 0 deceleration_curve__braking_curve_entry__speed__first__bit))

;; deceleration_curve__braking_curve_entry__speed__last__bit_axiom
  (assert
  (< deceleration_curve__braking_curve_entry__speed__first__bit deceleration_curve__braking_curve_entry__speed__last__bit))

;; deceleration_curve__braking_curve_entry__speed__position_axiom
  (assert (<= 0 deceleration_curve__braking_curve_entry__speed__position))

(declare-const value__size1 Int)

(declare-const value__component__size Int)

(declare-const value__alignment1 Int)

;; value__size_axiom
  (assert (<= 0 value__size1))

;; value__component__size_axiom
  (assert (<= 0 value__component__size))

;; value__alignment_axiom
  (assert (<= 0 value__alignment1))

(declare-const value__size2 Int)

(declare-const value__alignment2 Int)

;; value__size_axiom
  (assert (<= 0 value__size2))

;; value__alignment_axiom
  (assert (<= 0 value__alignment2))

(declare-const deceleration_curve__braking_curve_t__curve__first__bit Int)

(declare-const deceleration_curve__braking_curve_t__curve__last__bit Int)

(declare-const deceleration_curve__braking_curve_t__curve__position Int)

;; deceleration_curve__braking_curve_t__curve__first__bit_axiom
  (assert (<= 0 deceleration_curve__braking_curve_t__curve__first__bit))

;; deceleration_curve__braking_curve_t__curve__last__bit_axiom
  (assert
  (< deceleration_curve__braking_curve_t__curve__first__bit deceleration_curve__braking_curve_t__curve__last__bit))

;; deceleration_curve__braking_curve_t__curve__position_axiom
  (assert (<= 0 deceleration_curve__braking_curve_t__curve__position))

(declare-const deceleration_curve__braking_curve_t__end_point__first__bit Int)

(declare-const deceleration_curve__braking_curve_t__end_point__last__bit Int)

(declare-const deceleration_curve__braking_curve_t__end_point__position Int)

;; deceleration_curve__braking_curve_t__end_point__first__bit_axiom
  (assert (<= 0 deceleration_curve__braking_curve_t__end_point__first__bit))

;; deceleration_curve__braking_curve_t__end_point__last__bit_axiom
  (assert
  (< deceleration_curve__braking_curve_t__end_point__first__bit deceleration_curve__braking_curve_t__end_point__last__bit))

;; deceleration_curve__braking_curve_t__end_point__position_axiom
  (assert (<= 0 deceleration_curve__braking_curve_t__end_point__position))

(declare-const value__size3 Int)

(declare-const value__alignment3 Int)

;; value__size_axiom
  (assert (<= 0 value__size3))

;; value__alignment_axiom
  (assert (<= 0 value__alignment3))

(declare-const deceleration_curve__target_t__supervise__first__bit Int)

(declare-const deceleration_curve__target_t__supervise__last__bit Int)

(declare-const deceleration_curve__target_t__supervise__position Int)

;; deceleration_curve__target_t__supervise__first__bit_axiom
  (assert (<= 0 deceleration_curve__target_t__supervise__first__bit))

;; deceleration_curve__target_t__supervise__last__bit_axiom
  (assert
  (< deceleration_curve__target_t__supervise__first__bit deceleration_curve__target_t__supervise__last__bit))

;; deceleration_curve__target_t__supervise__position_axiom
  (assert (<= 0 deceleration_curve__target_t__supervise__position))

(declare-const deceleration_curve__target_t__location__first__bit Int)

(declare-const deceleration_curve__target_t__location__last__bit Int)

(declare-const deceleration_curve__target_t__location__position Int)

;; deceleration_curve__target_t__location__first__bit_axiom
  (assert (<= 0 deceleration_curve__target_t__location__first__bit))

;; deceleration_curve__target_t__location__last__bit_axiom
  (assert
  (< deceleration_curve__target_t__location__first__bit deceleration_curve__target_t__location__last__bit))

;; deceleration_curve__target_t__location__position_axiom
  (assert (<= 0 deceleration_curve__target_t__location__position))

(declare-const deceleration_curve__target_t__speed__first__bit Int)

(declare-const deceleration_curve__target_t__speed__last__bit Int)

(declare-const deceleration_curve__target_t__speed__position Int)

;; deceleration_curve__target_t__speed__first__bit_axiom
  (assert (<= 0 deceleration_curve__target_t__speed__first__bit))

;; deceleration_curve__target_t__speed__last__bit_axiom
  (assert
  (< deceleration_curve__target_t__speed__first__bit deceleration_curve__target_t__speed__last__bit))

;; deceleration_curve__target_t__speed__position_axiom
  (assert (<= 0 deceleration_curve__target_t__speed__position))

(define-fun in_range3 ((x Int)) Bool (and (<= 0 x) (<= x 4)))

(declare-const attr__ATTRIBUTE_ADDRESS Int)

(declare-const attr__ATTRIBUTE_ADDRESS1 Int)

(define-fun dynamic_invariant ((temp___expr_355 Int)
  (temp___is_init_352 Bool) (temp___skip_constant_353 Bool)
  (temp___do_toplevel_354 Bool)) Bool (=>
                                      (or (= temp___is_init_352 true)
                                      (<= 0 4)) (in_range3 temp___expr_355)))

(define-fun dynamic_invariant1 ((temp___expr_153 Float32)
  (temp___is_init_150 Bool) (temp___skip_constant_151 Bool)
  (temp___do_toplevel_152 Bool)) Bool (=>
                                      (or (= temp___is_init_150 true)
                                      (fp.leq (fp.neg (fp #b0 #b11111110 #b11111111111111111111111)) (fp #b0 #b11111110 #b11111111111111111111111)))
                                      (fp.isFinite32 temp___expr_153)))

(define-fun dynamic_invariant2 ((temp___expr_177 Int)
  (temp___is_init_174 Bool) (temp___skip_constant_175 Bool)
  (temp___do_toplevel_176 Bool)) Bool (=>
                                      (or (= temp___is_init_174 true)
                                      (<= 0 2147483647)) (in_range2
                                      temp___expr_177)))

(assert
;; WP_parameter_def
 ;; File "sec_3_13_8_targets_decel_curves.ads", line 48, characters 0-0
  (not false))
(check-sat)
(exit)
